JulietBench/Juliet_Based_Patch_Bench/linux/CWE-189-Numeric-Errors/CVE_2011_1013_1922756124ddd53846877416d92ba4a802bc658f/solverdrm_modeset_ctl_Snippet.smt2
; benchmark generated from python API
(set-info :status unknown)
(declare-fun R () (_ BitVec 32))
(declare-fun rsi () (_ BitVec 64))
(declare-fun rdi () (_ BitVec 64))
(assert
 (let (($x44 (= (_ bv4294967295 32) R)))
 (let ((?x8 ((_ extract 31 0) rsi)))
 (let (($x12 (= (_ bv0 32) ?x8)))
 (let (($x352 (and $x12 $x44)))
 (let (($x347 (= (_ bv0 32) R)))
 (let (($x38 (and (distinct (_ bv0 32) ?x8) true)))
 (let ((?x6 ((_ extract 31 0) rdi)))
 (let (($x350 (bvult ?x6 ?x8)))
 (let (($x355 (and $x350 $x38 $x347)))
 (let (($x349 (= (_ bv4294967274 32) R)))
 (let (($x351 (bvuge ?x6 ?x8)))
 (let (($x354 (and $x351 $x38 $x349)))
 (let (($x356 (or $x354 $x355 $x352)))
 (let (($x359 (not $x356)))
 (let (($x344 (bvugt ?x8 ?x6)))
 (let (($x46 (and $x344 $x38 $x347)))
 (let (($x50 (bvule ?x8 ?x6)))
 (let (($x346 (and $x50 $x38 $x349)))
 (let (($x353 (or $x346 $x46 $x352)))
 (let (($x358 (not $x353)))
 (let (($x360 (and $x358 $x359)))
 (let (($x357 (and $x353 $x356)))
 (let (($x361 (or $x357 $x360)))
 (not $x361)))))))))))))))))))))))))
(check-sat)
